clingo version 5.5.2
Reading from ...nt/beegfs/home/jubruns/encoding/mif.lp ...
Solving...
Answer: 1
move(1,(22,18),(22,17),2) move(1,(22,17),(22,16),3) move(1,(22,16),(22,15),4) move(1,(22,15),(22,14),5) move(1,(22,14),(21,14),6) move(1,(21,14),(21,13),7) move(1,(21,13),(20,13),8) move(1,(20,13),(20,12),9) move(1,(20,12),(20,11),10) move(1,(20,11),(21,11),11) move(1,(21,11),(22,11),12) move(1,(22,11),(23,11),13) move(1,(23,11),(23,12),14) move(1,(23,12),(23,11),25) move(1,(23,11),(23,10),26) move(1,(23,10),(22,10),27) move(2,(13,11),(14,11),1) move(2,(14,11),(15,11),2) move(2,(15,11),(16,11),3) move(2,(16,11),(16,12),4) move(2,(16,12),(16,13),5) move(2,(16,13),(16,14),6) move(2,(16,14),(16,15),7) move(2,(16,15),(16,16),8) move(2,(16,16),(17,16),9) move(2,(17,16),(17,17),10) move(2,(17,17),(17,18),11) move(2,(17,18),(18,18),12) move(2,(18,18),(18,19),13) move(2,(18,19),(18,20),14) move(2,(18,20),(19,20),15) move(2,(19,20),(20,20),16) move(2,(20,20),(20,21),17) move(2,(20,21),(20,22),18) move(2,(20,22),(19,22),19) move(2,(19,22),(18,22),20) move(2,(18,22),(17,22),21) move(2,(17,22),(17,23),22) move(2,(17,23),(16,23),23) move(2,(16,23),(15,23),24) move(2,(15,23),(14,23),25) move(2,(14,23),(13,23),26) move(2,(13,23),(12,23),27) move(3,(23,10),(23,9),2) move(3,(23,9),(23,8),3) move(3,(23,8),(23,7),4) move(3,(23,7),(23,6),5) move(3,(23,6),(23,7),15) move(3,(23,7),(23,8),16) move(3,(23,8),(23,9),22) move(3,(23,9),(23,10),23) move(3,(23,10),(23,11),24) move(3,(23,11),(22,11),25) move(3,(22,11),(23,11),26) move(3,(23,11),(23,12),27)
SATISFIABLE

Models       : 1+
Calls        : 1
Time         : 0.920s (Solving: 0.02s 1st Model: 0.02s Unsat: 0.00s)
CPU Time     : 0.890s

Choices      : 2385     (Domain: 2385)
Conflicts    : 4        (Analyzed: 4)
Restarts     : 0       
Model-Level  : 1721.0  
Problems     : 1        (Average Length: 0.00 Splits: 0)
Lemmas       : 4        (Deleted: 0)
  Binary     : 1        (Ratio:  25.00%)
  Ternary    : 0        (Ratio:   0.00%)
  Conflict   : 4        (Average Length:    4.5 Ratio: 100.00%) 
  Loop       : 0        (Average Length:    0.0 Ratio:   0.00%) 
  Other      : 0        (Average Length:    0.0 Ratio:   0.00%) 
Backjumps    : 4        (Average: 166.00 Max: 660 Sum:    664)
  Executed   : 4        (Average: 166.00 Max: 660 Sum:    664 Ratio: 100.00%)
  Bounded    : 0        (Average:  0.00 Max:   0 Sum:      0 Ratio:   0.00%)

Rules        : 298056   (Original: 251810)
  Choice     : 81      
  Heuristic  : 12263    (Original: 12641)
Atoms        : 145958   (Original: 131488 Auxiliary: 14470)
Bodies       : 180898   (Original: 148792)
  Count      : 111      (Original: 2773)
Equivalences : 98227    (Atom=Atom: 91 Body=Body: 97 Other: 98039)
Tight        : Yes
Variables    : 184872   (Eliminated:    0 Frozen: 88585)
Constraints  : 435036   (Binary:  80.1% Ternary:  11.5% Other:   8.5%)

